qbf_easy_train/easy_1531_SAT.qdimacs
p cnf 18 40
a 1 11 6 0
e 2 3 4 5 7 8 9 10 12 13 14 15 16 17 18 0
-1 -2 -3 0
1 2 -3 0
-1 2 3 0
1 -2 3 0
-4 -5 -6 0
4 5 -6 0
-4 5 6 0
4 -5 6 0
8 -6 0
8 -7 0
6 7 -8 0
-9 3 0
-9 -8 0
-3 8 9 0
11 2 0
11 -10 0
-2 10 -11 0
-9 11 -12 0
9 -11 -12 0
-9 -11 12 0
9 11 12 0
-13 -14 -15 0
13 14 -15 0
-13 14 15 0
13 -14 15 0
4 -6 -16 0
-4 6 -16 0
4 6 16 0
-4 -6 16 0
17 -15 0
17 16 0
15 -16 -17 0
18 12 0
18 -17 0
-12 17 -18 0
-14 9 11 0
-6 4 7 0
3 -10 16 0
9 6 -13 0
18 0
