sat_easy_train/easy_1531_SAT.dimacs
p cnf 121 392
3 4 0
-3 4 0
-5 -2 0
-5 -4 0
2 4 5 0
1 -5 -6 0
-1 5 -6 0
1 5 6 0
-1 -5 6 0
-9 -7 0
-9 -8 0
7 8 9 0
11 -10 0
11 10 0
-12 2 0
-12 -1 0
-2 1 12 0
-12 13 -14 0
12 -13 -14 0
-12 -13 14 0
12 13 14 0
-15 -11 0
-15 14 0
11 -14 15 0
-16 -9 0
-16 -15 0
9 15 16 0
13 11 -18 0
-13 -11 -18 0
13 -11 18 0
-13 11 18 0
-19 -17 0
-19 -18 0
17 18 19 0
20 -16 0
20 -19 0
16 19 -20 0
-14 18 -21 0
14 -18 -21 0
-14 -18 21 0
14 18 21 0
-24 22 0
-24 -23 0
-22 23 24 0
-25 24 0
-25 -17 0
-24 17 25 0
-27 -25 0
-27 -26 0
25 26 27 0
21 27 -28 0
-21 -27 -28 0
21 -27 28 0
-21 27 28 0
29 20 0
29 -28 0
-20 28 -29 0
30 6 0
30 -29 0
-6 29 -30 0
-31 11 -32 0
31 -11 -32 0
-31 -11 32 0
31 11 32 0
-33 -32 0
-33 -24 0
32 24 33 0
34 -26 0
34 31 0
26 -31 -34 0
-34 35 -36 0
34 -35 -36 0
-34 -35 36 0
34 35 36 0
-38 -37 0
-38 17 0
37 -17 38 0
-39 36 0
-39 -38 0
-36 38 39 0
40 33 0
40 39 0
-33 -39 -40 0
-41 1 0
-41 26 0
-1 -26 41 0
-42 -31 0
-42 -12 0
31 12 42 0
43 41 0
43 -42 0
-41 42 -43 0
-14 43 -44 0
14 -43 -44 0
-14 -43 44 0
14 43 44 0
-45 -43 0
-45 25 0
43 -25 45 0
-46 -45 0
-46 11 0
45 -11 46 0
-47 -11 0
-47 -46 0
11 46 47 0
-48 -35 0
-48 37 0
35 -37 48 0
-47 -48 -49 0
47 48 -49 0
-47 48 49 0
47 -48 49 0
-49 -12 -50 0
49 12 -50 0
-49 12 50 0
49 -12 50 0
51 44 0
51 50 0
-44 -50 -51 0
52 -40 0
52 -51 0
40 51 -52 0
42 45 -53 0
-42 -45 -53 0
42 -45 53 0
-42 45 53 0
-54 52 0
-54 53 0
-52 -53 54 0
55 30 0
55 -54 0
-30 54 -55 0
-56 -34 0
-56 35 0
34 -35 56 0
57 -56 0
57 -35 0
56 35 -57 0
-58 46 0
-58 -13 0
-46 13 58 0
59 -23 0
59 -12 0
23 12 -59 0
-60 -58 0
-60 -59 0
58 59 60 0
61 3 0
61 34 0
-3 -34 -61 0
-62 60 0
-62 -61 0
-60 61 62 0
-57 62 -63 0
57 -62 -63 0
-57 -62 63 0
57 62 63 0
-64 1 0
-64 17 0
-1 -17 64 0
-64 34 -65 0
64 -34 -65 0
-64 -34 65 0
64 34 65 0
-66 -65 0
-66 41 0
65 -41 66 0
-67 -13 0
-67 11 0
13 -11 67 0
68 34 0
68 -67 0
-34 67 -68 0
69 66 0
69 -68 0
-66 68 -69 0
70 63 0
70 69 0
-63 -69 -70 0
71 -45 0
71 -14 0
45 14 -71 0
72 71 0
72 67 0
-71 -67 -72 0
-73 -35 0
-73 56 0
35 -56 73 0
74 35 0
74 -73 0
-35 73 -74 0
-72 74 -75 0
72 -74 -75 0
-72 -74 75 0
72 74 75 0
-76 -48 0
-76 58 0
48 -58 76 0
77 -17 0
77 76 0
17 -76 -77 0
-12 31 -78 0
12 -31 -78 0
-12 -31 78 0
12 31 78 0
79 77 0
79 -78 0
-77 78 -79 0
80 73 0
80 -42 0
-73 42 -80 0
-79 80 -81 0
79 -80 -81 0
-79 -80 81 0
79 80 81 0
82 -5 0
82 -8 0
5 8 -82 0
83 82 0
83 23 0
-82 -23 -83 0
84 81 0
84 83 0
-81 -83 -84 0
7 85 -86 0
-7 -85 -86 0
7 -85 86 0
-7 85 86 0
87 18 0
87 86 0
-18 -86 -87 0
88 -41 0
88 -1 0
41 1 -88 0
-89 -87 0
-89 -88 0
87 88 89 0
-90 -12 0
-90 -45 0
12 45 90 0
91 -22 0
91 90 0
22 -90 -91 0
-92 91 0
-92 -85 0
-91 85 92 0
-93 12 0
-93 -11 0
-12 11 93 0
92 -93 -94 0
-92 93 -94 0
92 93 94 0
-92 -93 94 0
-95 -89 0
-95 -94 0
89 94 95 0
32 -37 -96 0
-32 37 -96 0
32 37 96 0
-32 -37 96 0
97 96 0
97 48 0
-96 -48 -97 0
-98 95 0
-98 97 0
-95 -97 98 0
-100 -99 0
-100 -90 0
99 90 100 0
-101 36 0
-101 -86 0
-36 86 101 0
102 8 0
102 3 0
-8 -3 -102 0
-102 1 -103 0
102 -1 -103 0
-102 -1 103 0
102 1 103 0
104 101 0
104 -103 0
-101 103 -104 0
7 22 -105 0
-7 -22 -105 0
7 -22 105 0
-7 22 105 0
-105 7 -106 0
105 -7 -106 0
-105 -7 106 0
105 7 106 0
102 -82 -107 0
-102 82 -107 0
102 82 107 0
-102 -82 107 0
108 12 0
108 -42 0
-12 42 -108 0
-109 107 0
-109 108 0
-107 -108 109 0
-110 -2 0
-110 102 0
2 -102 110 0
111 109 0
111 110 0
-109 -110 -111 0
-106 -111 -112 0
106 111 -112 0
-106 111 112 0
106 -111 112 0
104 112 -113 0
-104 -112 -113 0
104 -112 113 0
-104 112 113 0
100 113 -114 0
-100 -113 -114 0
100 -113 114 0
-100 113 114 0
115 -98 0
115 -114 0
98 114 -115 0
-116 90 0
-116 82 0
-90 -82 116 0
-117 115 0
-117 116 0
-115 -116 117 0
118 84 0
118 -117 0
-84 117 -118 0
119 75 0
119 118 0
-75 -118 -119 0
120 -70 0
120 119 0
70 -119 -120 0
55 -120 -121 0
-55 120 -121 0
55 120 121 0
-55 -120 121 0
-1 25 82 67 55 114 0
27 113 -18 98 -59 0
55 -43 66 -100 -111 19 0
-5 97 113 -7 119 85 0
12 88 -41 -103 21 0
89 -112 0
-74 70 -2 0
-77 -17 -120 -101 0
-35 72 0
-114 62 32 0
14 20 -38 -61 119 -120 0
43 55 65 0
109 -72 -71 74 0
110 63 61 0
-103 -33 0
113 70 55 77 0
-8 75 -15 -35 -76 0
51 31 -73 -41 0
105 81 -92 0
112 87 58 34 0
41 82 -76 -6 0
-33 79 89 2 9 -20 0
18 3 0
-90 84 -117 -16 -112 0
30 102 -66 11 57 0
-3 18 -70 29 106 -76 0
108 25 0
-100 57 67 -86 16 -19 0
-44 10 37 -53 91 0
-53 9 -58 0
-64 -91 -34 0
53 -94 63 -30 112 36 0
24 -85 -97 47 74 48 0
59 62 115 23 -91 -25 0
-114 -74 57 -49 0
-91 80 0
-7 42 0
37 -95 0
85 11 0
6 22 96 -109 0
34 -43 -12 -69 -21 0
109 -112 44 -87 33 56 0
-37 46 54 89 33 0
-18 -32 -12 -93 57 0
65 -95 89 40 85 0
2 -52 -48 -39 0
-75 -32 -37 16 98 102 0
17 -62 -76 78 100 0
-16 11 72 102 0
-79 -24 104 -41 -31 0
68 -5 14 -6 98 0
121 0
